
-10.9
-10.6
-10.2
-9.8
-9.2
-8.6
-7.2
-4.5
-3.0
-2.2
-2.0
-2.0
-1.7
-1.6
-1.4
-1.4
-1.1
-1.0
-1.0
-1.0
-1.0
-1.0
-1.0
-1.0
-1.0
-1.0
-1.0
-1.0
-1.0
-1.0
-1.0
-1.0
-1.0
-10.7
-10.6
-10.5
-9.8
-9.2
-8.3
-7.4
-5.4
-3.4
-2.1
-1.9
-1.8
-1.7
-1.7
-1.6
-1.5
-1.5
-1.4
-1.4
-1.3
-1.2
-1.2
-1.2
-1.2
-1.2
-1.2
-1.2
-1.2
-1.2
-11.0
-10.4
-10.1
-9.9
-8.9
-7.9
-6.9
-5.0
-3.5
-1.9
-1.6
-1.5
-1.4
-1.4
-1.4
-1.4
-1.4
-1.3
-1.3
-1.0
-1.0
-1.0
-1.0
-1.0
-1.0
-1.0
-1.0
-1.0
-1.0
-1.0
-1.0
-1.0
-1.0
-1.0
-1.0
-1.0
-1.0
-1.0
-1.0
-1.0